data/MCDM/NO_CORR/GEN_FROM_60/16_ITEMS_1000_GEN/K5016W07.KNP.mps
NAME          BLANK   
ROWS
 N  OBJROW
 L  R0000000
COLUMNS
    C0000000  OBJROW     -420.         R0000000  930.        
    C0000001  OBJROW     -20.          R0000000  400.        
    C0000002  OBJROW     -415.         R0000000  419.        
    C0000003  OBJROW     -424.         R0000000  73.         
    C0000004  OBJROW     -994.         R0000000  450.        
    C0000005  OBJROW     -376.         R0000000  534.        
    C0000006  OBJROW     -98.          R0000000  365.        
    C0000007  OBJROW     -631.         R0000000  502.        
    C0000008  OBJROW     -55.          R0000000  924.        
    C0000009  OBJROW     -73.          R0000000  292.        
    C0000010  OBJROW     -362.         R0000000  690.        
    C0000011  OBJROW     -320.         R0000000  424.        
    C0000012  OBJROW     -946.         R0000000  985.        
    C0000013  OBJROW     -808.         R0000000  207.        
    C0000014  OBJROW     -218.         R0000000  635.        
    C0000015  OBJROW     -953.         R0000000  949.        
RHS
    RHS       R0000000  16386.      
BOUNDS
 BV BOUND     C0000000  1.          
 BV BOUND     C0000001  1.          
 BV BOUND     C0000002  1.          
 BV BOUND     C0000003  1.          
 BV BOUND     C0000004  1.          
 BV BOUND     C0000005  1.          
 BV BOUND     C0000006  1.          
 BV BOUND     C0000007  1.          
 BV BOUND     C0000008  1.          
 BV BOUND     C0000009  1.          
 BV BOUND     C0000010  1.          
 BV BOUND     C0000011  1.          
 BV BOUND     C0000012  1.          
 BV BOUND     C0000013  1.          
 BV BOUND     C0000014  1.          
 BV BOUND     C0000015  1.          
ENDATA
