data/MCDM/NO_CORR/GEN_FROM_60/16_ITEMS_1000_GEN/K5016W07.KNP.txt
N 16
M 17
LC 16
LC 17
LC 18
LC 19
LC 20
LC 21
LC 22
LC 23
LC 24
LC 25
LC 26
LC 27
LC 28
LC 29
LC 30
LC 31
LR 1
LR 2
LR 3
LR 4
LR 5
LR 6
LR 7
LR 8
LR 9
LR 10
LR 11
LR 12
LR 13
LR 14
LR 15
LR 16
LR 17
LO -420
LO -20
LO -415
LO -424
LO -994
LO -376
LO -98
LO -631
LO -55
LO -73
LO -362
LO -320
LO -946
LO -808
LO -218
LO -953
OS 1
IC 568
IC 762
IC 433
IC 739
IC 433
IC 501
IC 813
IC 848
IC 576
IC 360
IC 294
IC 405
IC 660
IC 501
IC 814
IC 467
IB 4587
